local_stuff/sygus_stuff/sygus_inv_oai/repo/z3/46.out
STDOUT:
sat
(
  (define-fun inv ((x!0 Int) (x!1 Int)) Bool
    (and (not (<= x!1 0)) (= x!0 0)))
)


STDERR:
